objective value:                                    0
lambda[0,32]*                                       1 	(obj:0)
lambda[0,37]*                                       9 	(obj:0)
lambda[1,43]*                                       2 	(obj:0)
lambda[1,44]*                                       5 	(obj:0)
lambda[1,45]*                                       2 	(obj:0)
lambda[1,46]*                                       1 	(obj:0)
